p edge 30 40 10
v 7 5 7 11 14 20 21 26
v 3 4 24 29
v 2 3 12
v 1 16
v 2 9 25
v 3 1 2 17
v 2 13 18
v 4 15 22 28 30
v 3 8 19 27
v 3 6 10 23
e 3 10
e 3 26
e 3 30
e 4 22
e 5 23
e 5 27
e 5 29
e 5 30
e 6 10
e 6 20
e 6 28
e 7 8
e 8 14
e 9 17
e 9 20
e 9 22
e 9 30
e 10 28
e 11 23
e 11 25
e 11 30
e 12 19
e 12 23
e 12 26
e 13 27
e 14 22
e 14 24
e 15 24
e 15 29
e 16 19
e 18 30
e 19 26
e 20 27
e 22 23
e 22 25
e 24 28
e 25 26
e 25 29
e 26 28
e 28 29
